1335
1500000
994198
994198
994198
994198
994198
994198
994198
994198
994198
994198
994198
994198
994198
994198
994198
994198
994198
994198
994198
994198
992107
992107
992107
992107
992107
992107
992107
992107
992107
992107
992107
992107
992107
992107
992107
992107
992107
992107
989315
989315
989315
989315
989315
989315
989315
989315
989315
989315
989315
989315
989315
989315
972658
972658
972658
972658
972658
972658
972658
970141
970141
970141
970141
970141
970141
970141
970141
970141
970141
970141
969620
969620
969620
969620
969620
969620
969620
969620
969620
969620
964307
964307
964307
964307
964307
964307
964307
964307
964307
964307
956616
956616
956616
956616
956616
956616
956616
956616
956616
956616
956616
956616
956616
956616
956616
956616
956616
956616
956616
956616
948445
948445
948445
948445
948445
948445
948445
948445
948445
945650
945650
945650
945650
945650
945650
945650
945650
945650
945650
945650
945650
945650
945650
945650
945650
945650
941891
941891
941891
941891
941891
941891
941891
941891
941891
941891
941891
941891
941891
941891
941891
941891
941891
941891
941176
941176
941176
941176
941176
941176
941176
941176
941176
941176
941176
941176
941176
941176
941176
941176
941176
941176
941176
941176
928989
928989
923618
921907
921907
921907
921907
921907
921907
921907
921907
921907
921907
921907
921907
921907
921907
921907
921907
921907
921907
921907
921907
919404
919404
919404
919404
919404
919404
919404
919404
919404
919404
919404
919404
919404
919404
919404
913831
913831
913831
913831
906521
906521
906521
906521
903476
903476
903476
903476
903476
903476
903476
903476
903476
903476
903476
903476
903476
903476
903476
903476
903476
903476
903476
903476
902039
902039
902039
902039
902039
902039
902039
893167
893167
893167
893167
893167
893167
893167
893167
891606
891606
891606
891606
891606
891606
891606
891606
891606
884092
884092
884092
884092
884092
884092
884092
884092
884092
884092
884092
884092
884092
873187
873187
873187
873187
873187
873187
873187
873187
873187
873187
873187
873187
873187
873187
873187
873187
869897
869897
869897
869897
869897
869897
869897
869897
869897
869897
869897
869897
869897
869897
869897
869897
869897
869897
869897
868055
865761
865761
865761
865761
865761
865761
865761
856953
856953
856953
856953
856953
856953
856953
853241
853241
853241
853241
853241
853241
853241
853241
853241
853241
853241
853241
853241
853241
853241
853241
853241
852774
852774
852774
852774
852774
852774
852774
852774
852774
852774
852774
852774
852774
846114
846114
846114
846114
846114
846114
846114
846114
846114
846114
846114
846114
846114
846114
846114
841876
841876
841876
841876
841876
841876
841876
841876
841876
841876
841876
841876
841876
836084
836084
836084
836084
836084
836084
836084
836084
836084
836084
836084
836084
836084
836084
836084
836084
836084
836084
836084
836084
831876
831876
831876
831876
831876
831876
831876
831876
831876
831876
831366
831366
831366
831366
831366
831366
831366
831366
831366
831366
831366
831366
831366
831366
831366
830900
830900
830900
830900
830900
830900
830900
830900
830900
830900
830900
830900
830900
830900
830900
830900
830900
830900
830900
829876
829876
829876
829876
829876
825937
825937
822357
822357
822357
822357
822357
822357
822357
822357
822357
822357
822357
822357
822357
822357
822357
822357
822357
814783
814783
814783
814783
814783
814783
814783
807147
807147
807147
807147
807147
807147
807147
807147
807147
807147
807147
807147
807147
807147
807147
807147
801853
801853
801853
801853
801853
801853
801853
801853
801853
801853
801853
801853
801853
801853
801853
801853
801853
801853
801853
771621
771621
771621
771621
771621
771621
771621
767220
767220
767220
767220
767220
767220
767220
767220
767220
767220
767220
767220
727358
727358
727358
727358
727358
727358
727358
727358
727358
727358
727358
727358
727358
727358
724152
724152
724152
724152
724152
724152
724152
724152
724152
724152
724152
724152
724152
717092
717092
717092
717092
717092
717092
717092
717092
717092
717092
717092
717092
717092
717092
717092
717092
717092
717092
717092
717092
716136
716136
716136
716136
716136
716136
716136
716136
716136
716136
716136
716136
716136
716136
716136
716136
693135
693135
693135
693135
693135
693135
693135
693135
693135
693135
693135
691714
691714
691714
691714
691714
691714
679932
679932
679932
679932
679932
679932
679932
679932
679932
679932
665702
665702
665702
665702
665702
665702
665702
665702
665702
665702
665702
654018
654018
654018
654018
654018
649710
649710
649710
649710
649710
649710
649710
649710
644569
644569
644569
644569
644569
644569
644569
644569
644569
644569
644569
644569
639481
639481
639481
639481
639481
639481
639481
639481
639481
639481
639481
639481
639481
639481
639481
639481
639481
632444
632444
632444
632444
632444
632444
632444
632444
632444
632444
632444
632444
632444
632444
632444
632444
632444
632444
632444
632022
632022
632022
632022
632022
632022
632022
632022
632022
632022
632022
632022
626777
626777
626777
626777
626777
626777
626777
626777
626777
626777
626777
626777
626777
626777
626777
626777
626777
626101
626101
626101
626101
626101
626101
626101
626101
625068
625068
625068
625068
625068
625068
625068
625068
625068
612566
612566
612166
612166
612166
612166
612166
612166
612166
612166
612166
612166
612166
612166
612166
612166
612166
612166
612166
612166
612166
612166
611477
611477
611477
611477
611477
611477
611477
611477
611477
611477
611477
611477
611477
611477
611477
611477
611477
611477
611477
611477
608795
608795
608795
608795
608795
608795
608218
608218
608218
608218
608218
608218
608218
608218
608218
600670
600670
600670
600670
600670
600670
600670
600670
600670
600670
600670
597588
597588
597588
597588
597588
597588
597588
586651
586651
586651
586651
586651
586651
564172
564172
564172
564172
562527
562527
562527
562527
562527
562527
562527
562527
562527
562527
562527
562527
558054
558054
558054
558054
558054
558054
558054
558054
558054
558054
558054
558054
558054
558054
550259
550259
550259
550259
550259
550259
550259
550259
550259
550259
550259
550259
550259
550259
550259
550259
550259
550259
545916
545916
545916
545916
545916
545916
545916
545916
545916
545916
545916
545916
540988
531941
531941
531941
531941
531941
531941
531941
531941
515334
515334
515334
511392
491354
491354
491354
491354
491354
491354
491354
491354
491354
491354
491354
491354
491354
491354
491354
491354
491354
485107
485107
485107
485107
485107
485061
485061
485061
485061
485061
485061
485061
485061
485061
485061
485061
485061
485061
485061
485061
485061
485061
485061
485061
475855
475855
475855
475855
475855
475855
475855
475855
475855
474537
474537
474537
474537
474537
472984
472984
471984
471984
471984
471984
471984
471984
471984
471984
471984
471984
471984
471984
471984
471984
471984
471984
471984
463739
463739
463739
463739
463739
463739
463739
463739
463739
463739
463739
462863
462863
462863
462863
462863
462863
462819
462819
462819
462819
462819
462819
462819
462819
462819
462819
462819
462819
462819
462819
454505
454505
454505
454505
454505
454505
454505
454505
454505
447184
447184
447184
447184
447184
447184
447184
447184
447184
447184
438923
438923
438923
438923
438923
438923
438923
438923
438923
438923
438923
438923
438923
438923
438923
438923
438923
438923
430627
430627
430627
422022
422022
422022
422022
422022
419025
419025
419025
419025
419025
419025
419025
419025
419025
419025
418796
418796
418796
418796
418796
418796
418796
418796
418796
418796
418796
418796
418796
418796
418796
418796
415031
415031
415031
415031
415031
415031
415031
415031
415031
415031
415031
415031
415031
415031
415031
415031
415031
415031
407946
407946
407946
407946
407946
407946
407946
407946
407946
407946
406449
406449
406449
406449
406449
406449
406449
406449
406449
406449
406449
406449
406449
406449
406449
406449
377465
377465
377465
377465
377465
377465
377465
377465
377465
361959
361959
361959
361959
361959
361959
361959
361959
355265
355265
355265
355265
355265
355265
355265
355265
355265
355265
355265
355265
355265
355265
355265
355265
346724
346724
346724
346724
346724
346724
346724
346724
346724
346724
346724
346724
346724
346724
340673
340673
340673
340673
340673
340673
340673
340673
340673
340673
340673
332875
332875
332875
321491
321491
321491
321491
321491
316086
316086
316086
316086
304741
304741
304741
304741
304741
304741
304741
304741
304741
304741
304741
304741
304741
304741
301512
301512
301512
301512
301512
301512
301512
301512
301512
301512
301512
301512
301512
301512
301512
301512
301512
297758
297758
297758
297758
297758
297758
294659
294659
294659
294659
294659
294659
294659
291155
291155
290875
288520
288520
288520
288520
288520
285509
285509
285509
285509
285509
285509
285509
285509
285509
285509
285509
285509
285509
285320
285320
285320
285320
285320
285320
285320
285320
285320
285320
285320
282599
282599
282599
282599
253757
252252
252252
252252
252252
252252
252252
245614
245614
245614
245614
245614
245614
245614
235108
234444
234444
234444
234444
234444
234444
234444
234444
234444
234444
234444
234444
234444
234444
217221
217221
217221
215704
215704
215704
215704
215704
215704
215704
215704
215704
210831
210831
210831
210831
210831
210831
210831
210831
210831
210831
210831
210831
210831
210831
210831
210831
210831
202637
202637
202637
202637
202637
202637
202637
202637
202637
202637
202637
